(declare-fun var0 () String)
(declare-fun var1 () String)
(declare-fun var2 () String)
(declare-fun var3 () Int)
(declare-fun var4 () Int)
(declare-fun var5 () Int)
(declare-fun var6 () Bool)
(declare-fun var7 () Bool)
(declare-fun var8 () Bool)
(assert (<= (str.len (str.at var1 var5)) (str.indexof (str.substr var0 5 var5) (str.at var1 var3) (str.indexof var0 var2 8))))
(assert (<= (str.len (str.substr var0 var5 var5)) (str.indexof var1 var0 0)))
(assert (<= (str.len var2) (str.indexof var0 var2 var4)))
(assert (str.prefixof (str.replace "5kS(jmK?2u" var1 var2) (str.at var0 var4)))
(check-sat)
